# Solution for model micodag
# Objective value = 6.4308527244399052e+00
s_0_1 0
s_1_0 0
s_1_3 0
s_3_1 0
s_1_4 0
s_4_1 2.6383776287864524e-01
s_2_3 0
s_3_2 3.2339423231488595e-01
s_2_5 0.7787874615282
s_5_2 0
s_3_4 0
s_4_3 0.400974239713622
s_4_5 0
s_5_4 0
s_4_6 0
s_6_4 8.0312281840876310e-01
s_4_7 0
s_7_4 6.9945754842936214e-01
s_5_6 0
s_6_5 1.3784755477867181e+00
s_0_0 1.0085991501720155e+00
s_1_1 0.74017301684803
s_2_2 3.7509157445439980e+00
s_3_3 6.5890443046666380e-01
s_4_4 7.1570504297306226e-01
s_5_5 1.2471968209367841e+00
s_6_6 2.1068074717103995e+00
s_7_7 1.9432259323160470e+00
Gamma_0_0 1.0042903714424514e+00
Gamma_0_1 0
Gamma_0_2 0
Gamma_0_3 0
Gamma_0_4 0
Gamma_0_5 0
Gamma_0_6 0
Gamma_0_7 0
Gamma_1_0 0
Gamma_1_1 8.6033308482705118e-01
Gamma_1_2 0
Gamma_1_3 0
Gamma_1_4 0
Gamma_1_5 0
Gamma_1_6 0
Gamma_1_7 0
Gamma_2_0 0
Gamma_2_1 0
Gamma_2_2 1.9367281028951890e+00
Gamma_2_3 0
Gamma_2_4 0
Gamma_2_5 -8.8248935490928226e-01
Gamma_2_6 0
Gamma_2_7 0
Gamma_3_0 0
Gamma_3_1 0
Gamma_3_2 5.6867761720933518e-01
Gamma_3_3 8.1172928397752442e-01
Gamma_3_4 0
Gamma_3_5 0
Gamma_3_6 0
Gamma_3_7 0
Gamma_4_0 0
Gamma_4_1 -5.1365140209936777e-01
Gamma_4_2 0
Gamma_4_3 6.3322526774728638e-01
Gamma_4_4 8.4599352419097362e-01
Gamma_4_5 0
Gamma_4_6 0
Gamma_4_7 0
Gamma_5_0 0
Gamma_5_1 0
Gamma_5_2 0
Gamma_5_3 0
Gamma_5_4 0
Gamma_5_5 1.1167796653488926e+00
Gamma_5_6 0
Gamma_5_7 0
Gamma_6_0 0
Gamma_6_1 0
Gamma_6_2 0
Gamma_6_3 0
Gamma_6_4 -8.9617119927431521e-01
Gamma_6_5 1.1740849832046738e+00
Gamma_6_6 1.4514845750852468e+00
Gamma_6_7 0
Gamma_7_0 0
Gamma_7_1 0
Gamma_7_2 0
Gamma_7_3 0
Gamma_7_4 -8.3633578688787613e-01
Gamma_7_5 0
Gamma_7_6 0
Gamma_7_7 1.3939963889178648e+00
psi_0 0
psi_1 2
psi_2 3
psi_3 2
psi_4 1
psi_5 4
psi_6 0
psi_7 0
g_0_0 0
g_0_1 0
g_0_2 0
g_0_3 0
g_0_4 0
g_0_5 0
g_0_6 0
g_0_7 0
g_1_0 0
g_1_1 0
g_1_2 0
g_1_3 0
g_1_4 0
g_1_5 0
g_1_6 0
g_1_7 0
g_2_0 0
g_2_1 0
g_2_2 0
g_2_3 0
g_2_4 0
g_2_5 1
g_2_6 0
g_2_7 0
g_3_0 0
g_3_1 0
g_3_2 1
g_3_3 0
g_3_4 0
g_3_5 0
g_3_6 0
g_3_7 0
g_4_0 0
g_4_1 1
g_4_2 0
g_4_3 1
g_4_4 0
g_4_5 0
g_4_6 0
g_4_7 0
g_5_0 0
g_5_1 0
g_5_2 0
g_5_3 0
g_5_4 0
g_5_5 0
g_5_6 0
g_5_7 0
g_6_0 0
g_6_1 0
g_6_2 0
g_6_3 0
g_6_4 1
g_6_5 1
g_6_6 0
g_6_7 0
g_7_0 0
g_7_1 0
g_7_2 0
g_7_3 0
g_7_4 1
g_7_5 0
g_7_6 0
g_7_7 0
T_0 -8.5623880783600725e-03
T_1 3.0087131356101793e-01
T_2 -1.3220000087157757e+00
T_3 4.1717677704995992e-01
T_4 3.3448714805162183e-01
T_5 -2.2089848979793203e-01
T_6 -7.4517375509432782e-01
T_7 -6.6434944377736826e-01
